certificates/rado_a7_c11_N24.cnf
c Rad2 upper bound instance: x1 + 7*x2 - x3 = 11, interval [1,24]
p cnf 24 124
1 2 4 0
-1 -2 -4 0
1 3 11 0
-1 -3 -11 0
1 4 18 0
-1 -4 -18 0
2 5 0
-2 -5 0
2 3 12 0
-2 -3 -12 0
2 4 19 0
-2 -4 -19 0
2 3 6 0
-2 -3 -6 0
3 13 0
-3 -13 0
3 4 20 0
-3 -4 -20 0
2 4 7 0
-2 -4 -7 0
3 4 14 0
-3 -4 -14 0
4 21 0
-4 -21 0
1 5 0
-1 -5 0
2 5 8 0
-2 -5 -8 0
3 5 15 0
-3 -5 -15 0
4 5 22 0
-4 -5 -22 0
1 2 6 0
-1 -2 -6 0
2 6 9 0
-2 -6 -9 0
3 6 16 0
-3 -6 -16 0
4 6 23 0
-4 -6 -23 0
1 3 7 0
-1 -3 -7 0
2 7 10 0
-2 -7 -10 0
3 7 17 0
-3 -7 -17 0
4 7 24 0
-4 -7 -24 0
1 4 8 0
-1 -4 -8 0
2 8 11 0
-2 -8 -11 0
3 8 18 0
-3 -8 -18 0
1 5 9 0
-1 -5 -9 0
2 9 12 0
-2 -9 -12 0
3 9 19 0
-3 -9 -19 0
1 6 10 0
-1 -6 -10 0
2 10 13 0
-2 -10 -13 0
3 10 20 0
-3 -10 -20 0
1 7 11 0
-1 -7 -11 0
2 11 14 0
-2 -11 -14 0
3 11 21 0
-3 -11 -21 0
1 8 12 0
-1 -8 -12 0
2 12 15 0
-2 -12 -15 0
3 12 22 0
-3 -12 -22 0
1 9 13 0
-1 -9 -13 0
2 13 16 0
-2 -13 -16 0
3 13 23 0
-3 -13 -23 0
1 10 14 0
-1 -10 -14 0
2 14 17 0
-2 -14 -17 0
3 14 24 0
-3 -14 -24 0
1 11 15 0
-1 -11 -15 0
2 15 18 0
-2 -15 -18 0
1 12 16 0
-1 -12 -16 0
2 16 19 0
-2 -16 -19 0
1 13 17 0
-1 -13 -17 0
2 17 20 0
-2 -17 -20 0
1 14 18 0
-1 -14 -18 0
2 18 21 0
-2 -18 -21 0
1 15 19 0
-1 -15 -19 0
2 19 22 0
-2 -19 -22 0
1 16 20 0
-1 -16 -20 0
2 20 23 0
-2 -20 -23 0
1 17 21 0
-1 -17 -21 0
2 21 24 0
-2 -21 -24 0
1 18 22 0
-1 -18 -22 0
1 19 23 0
-1 -19 -23 0
1 20 24 0
-1 -20 -24 0
