certificates/rado_a7_c11_N24.drat
2 4 0
d 2 1 4 0
-21 -24 0
5 -4 0
-4 -24 0
d -7 -4 -24 0
-24 0
-4 0
21 0
2 0
7 0
-18 0
-5 0
-10 0
1 0
22 0
-6 0
-17 0
-11 0
-3 0
-19 0
23 0
13 0
20 0
14 0
15 0
16 0
8 0
9 0
0
